data/dat/A015.dat
/* Cplex Data generated on 2017-12-15 */

k = 8;

b = 4;

AtomicConstraints = {
	 <3, 1>,
	 <3, 2>,
	 <4, 1>,
	 <4, 2>,
	 <7, 5>,
	 <7, 6>,
	 <8, 6>,
	 }; 

SoftAtomicConstraints = {
	 <1, 2>,
	 <3, 4>,
	 <5, 6>,
	 <7, 8>,
	 }; 

DisjunctiveConstraints = {
	 <3, 5, 3, 1>,
	 <4, 6, 4, 2>,
	 <7, 6, 7, 2>,
	 }; 

DirectSuccessors = {
	1,
	2,
	3,
	4,
	 }; 

